5	4
3	3	1	18	3	21	2	21	3	2	36	4	30	3	30	3	4	27	2	30	1	30
3	3	1	54	3	48	2	51	3	3	18	2	21	4	24	3	2	45	1	48	3	42
3	3	3	27	1	33	4	30	3	4	9	3	12	2	15	3	1	36	2	27	3	33
2	3	4	18	2	24	3	21	3	2	45	3	39	1	42
2	3	3	9	4	15	2	12	3	1	27	2	21	4	24
0	2	4	5	7
9	0	2	3	5
10	7	0	4	3
6	4	3	0	3
7	7	6	3	0
